nNurses = 193;
nHours = 33;
minHours = 7;
maxHours = 16;
maxConsec = 15;
maxPresence = 14;
demand = [42, 39, 44, 43, 42, 43, 43, 41, 40, 38, 41, 39, 43, 43, 39, 40, 35, 35, 39, 42, 42, 44, 41, 39, 35, 38, 42, 43, 47, 42, 45, 46, 41];
